
Gurobi 9.1.2 (linux64, gurobi_cl) logging started Fri Jul 30 13:55:03 2021

Using license file /opt/gurobi/gurobi.lic
Set parameter TimeLimit to value 600
Set parameter Heuristics to value 0.1
Set parameter Cuts to value 1
Set parameter LogFile to value 912-Cuts1-Heuristics0.1-glass4-1.log
Set parameter Seed to value 1

Gurobi Optimizer version 9.1.2 build v9.1.2rc0 (linux64)
Copyright (c) 2021, Gurobi Optimization, LLC

Read MPS format model from file /nfs/models/mip/glass4.mps.bz2
Reading time = 0.00 seconds
glass4: 396 rows, 322 columns, 1815 nonzeros
Thread count: 4 physical cores, 8 logical processors, using up to 8 threads
Optimize a model with 396 rows, 322 columns and 1815 nonzeros
Model fingerprint: 0x0a9d9037
Variable types: 20 continuous, 302 integer (0 binary)
Coefficient statistics:
  Matrix range     [1e+00, 8e+06]
  Objective range  [1e+00, 1e+06]
  Bounds range     [1e+00, 8e+02]
  RHS range        [1e+00, 8e+06]
Presolve removed 6 rows and 6 columns
Presolve time: 0.00s
Presolved: 390 rows, 316 columns, 1803 nonzeros
Variable types: 19 continuous, 297 integer (297 binary)
Found heuristic solution: objective 3.133356e+09

Root relaxation: objective 8.000024e+08, 72 iterations, 0.00 seconds

    Nodes    |    Current Node    |     Objective Bounds      |     Work
 Expl Unexpl |  Obj  Depth IntInf | Incumbent    BestBd   Gap | It/Node Time

     0     0 8.0000e+08    0   72 3.1334e+09 8.0000e+08  74.5%     -    0s
H    0     0                    2.250018e+09 8.0000e+08  64.4%     -    0s
H    0     0                    2.150017e+09 8.0000e+08  62.8%     -    0s
     0     0 8.0000e+08    0   72 2.1500e+09 8.0000e+08  62.8%     -    0s
     0     0 8.0000e+08    0   72 2.1500e+09 8.0000e+08  62.8%     -    0s
     0     0 8.0000e+08    0   73 2.1500e+09 8.0000e+08  62.8%     -    0s
     0     0 8.0000e+08    0   73 2.1500e+09 8.0000e+08  62.8%     -    0s
H    0     2                    2.033352e+09 8.0000e+08  60.7%     -    0s
     0     2 8.0000e+08    0   73 2.0334e+09 8.0000e+08  60.7%     -    0s
H   35    40                    1.966685e+09 8.0000e+08  59.3%  12.6    0s
H   96   183                    1.966685e+09 8.0000e+08  59.3%   8.5    0s
H  154   183                    1.955575e+09 8.0000e+08  59.1%   6.5    0s
H  183   446                    1.933351e+09 8.0000e+08  58.6%   5.8    0s
H  183   446                    1.900017e+09 8.0000e+08  57.9%   5.8    0s
H  650   608                    1.800016e+09 8.0000e+08  55.6%   5.3    0s
H 1011   908                    1.700014e+09 8.0000e+08  52.9%   5.4    0s
H 1503  1223                    1.700014e+09 8.0000e+08  52.9%   6.5    0s
H 1559  1199                    1.600014e+09 8.0000e+08  50.0%   6.6    0s
H 1563  1142                    1.500014e+09 8.0000e+08  46.7%   6.6    0s
H 1567  1089                    1.500013e+09 8.0000e+08  46.7%   6.6    0s
H 1568  1037                    1.425014e+09 8.0000e+08  43.9%   6.6    0s
H 1775  1074                    1.400014e+09 8.0000e+08  42.9%   8.1    1s
  5604  2083 infeasible   32      1.4000e+09 8.0001e+08  42.9%  24.8    5s
H 7897  2790                    1.400013e+09 8.0001e+08  42.9%  27.2    7s
 11992  3925 infeasible   38      1.4000e+09 8.6667e+08  38.1%  28.8   10s
 30650 11560 infeasible   33      1.4000e+09 9.0001e+08  35.7%  25.2   15s
 55481 15490 1.2000e+09   36   79 1.4000e+09 1.0000e+09  28.6%  23.4   20s
 77789 19699 1.2000e+09   34   31 1.4000e+09 1.0000e+09  28.6%  23.3   25s
 98755 19418 1.3000e+09   44   53 1.4000e+09 1.1000e+09  21.4%  23.3   30s
*113741 21361              61    1.400013e+09 1.1000e+09  21.4%  22.9   32s
 124439 21144 1.1000e+09   45   44 1.4000e+09 1.1000e+09  21.4%  22.2   35s
*126395 14779              59    1.350013e+09 1.1000e+09  18.5%  22.2   35s
 141278 10056 infeasible   44      1.3500e+09 1.2000e+09  11.1%  23.0   40s
*142912  3961              51    1.266680e+09 1.2000e+09  5.26%  22.9   40s
*142913  2457              51    1.200013e+09 1.2000e+09  0.00%  22.9   40s

Cutting planes:
  Gomory: 107
  Cover: 10
  Implied bound: 29
  MIR: 27
  Flow cover: 189
  GUB cover: 1
  Inf proof: 3
  RLT: 108
  Relax-and-lift: 97

Explored 143022 nodes (3276813 simplex iterations) in 40.16 seconds
Thread count was 8 (of 8 available processors)

Solution count 10: 1.20001e+09 1.26668e+09 1.35001e+09 ... 1.60001e+09

Optimal solution found (tolerance 1.00e-04)
Best objective 1.200012600000e+09, best bound 1.200008537562e+09, gap 0.0003%
